minizinc/sudoku_problems2/sudoku_p52.dzn
%
% sudoku_p52.dzn
% See http://www.hakank.org/minizinc/sudoku_gcc.mzn
% 
% This problem is problem 52 from
% Gecode's sudoku.cpp
% http://www.gecode.org/gecode-doc-latest/sudoku_8cpp-source.html
% 
x = array2d(1..n, 1..n, [   
% http://janko.at/Raetsel/Sudoku/369.a.htm
% 52
  _,  _,  _, 14,  _,  6, 13, 11,  _,  _,  _,  2,  _,  8,  _,  _,
  _,  _,  _,  _,  5, 16,  _,  3,  _,  9, 15,  8, 12,  1,  _,  _,
  9,  8,  1,  _,  _,  _,  _, 15, 16,  _,  _,  _,  _,  7,  _,  _,
  _,  3,  _, 15,  8,  _,  _,  _,  _,  6,  5,  _,  2,  _,  _,  9,
  3, 16,  _,  _,  _,  _,  4, 10,  5, 13,  _,  _,  7,  _, 15,  _,
  _, 10,  _, 13,  _,  _,  _,  2,  _,  _,  _,  _,  _,  _,  6,  4,
  _,  2,  _,  4, 12,  _, 15,  _,  _, 10,  _, 16,  _,  _,  _,  3,
  _,  _, 15,  _, 13,  _,  _,  _,  _,  _,  6, 12,  _,  2,  1, 14,
  1, 15,  9,  _, 11,  2,  _,  _,  _,  _,  _, 14,  _, 13,  _,  _,
  4,  _,  _,  _, 14,  _,  3,  _,  _, 11,  _, 13, 15,  _,  2,  _,
  5, 14,  _,  _,  _,  _,  _,  _,  9,  _,  _,  _,  3,  _, 12,  _,
  _, 13,  _,  3,  _,  _,  8,  1,  4,  2,  _,  _,  _,  _,  5, 10,
  2,  _,  _,  5,  _, 13,  6,  _,  _,  _,  _, 15,  1,  _, 10,  _,
  _,  _,  4,  _,  _,  _,  _,  8,  6,  _,  _,  _,  _, 14, 13, 16,
  _,  _,  3, 12, 16, 15, 11,  _, 14,  _, 13, 10,  _,  _,  _,  _,
  _,  _, 16,  _,  3,  _,  _,  _,  2,  7,  9,  _,  6,  _,  _,  _
]);

n = 16;


